--- Job gams_0256_064_32_04_0.67_05_0.10_0.90_22_problem.txt Start 02/25/21 09:14:48 35.2.0 r33388c4 WEX-WEI x86 64bit/MS Windows
--- Applying:
    C:\Users\MariaSosnovskaya\GAMS35\gmsprmNT.txt
--- GAMS Parameters defined
    Input C:\Users\MariaSosnovskaya\Downloads\WfmGams3\problems\gams_0256_064_32_04_0.67_05_0.10_0.90_22_problem.txt
    ScrDir C:\Users\MariaSosnovskaya\Downloads\WfmGams3\225i\
    SysDir C:\Users\MariaSosnovskaya\GAMS35\
Licensee: GAMS Evaluation License                        S210124/0001AB-GEN
          Sobolev Institute of Mathematics, Discrete Optimization LaDCE1098
          C:\Users\MariaSosnovskaya\GAMS35\gamslice.txt
          Evaluation license: Not for commercial or production use
GAMS 35.2.0   Copyright (C) 1987-2021 GAMS Development. All rights reserved
--- Starting compilation
--- gams_0256_064_32_04_0.67_05_0.10_0.90_22_problem.txt(22) 3 Mb
--- . gams_0256_064_32_04_0.67_05_0.10_0.90_22.inc(45982) 7 Mb--- . gams_0256_064_32_04_0.67_05_0.10_0.90_22.inc(59912) 8 Mb
--- gams_0256_064_32_04_0.67_05_0.10_0.90_22_problem.txt(98) 8 Mb
--- Starting execution: elapsed 0:00:00.250
--- gams_0256_064_32_04_0.67_05_0.10_0.90_22_problem.txt(5816) 8 Mb--- gams_0256_064_32_04_0.67_05_0.10_0.90_22_problem.txt(59933) 9 Mb
--- Generating MIP model mymodel
--- gams_0256_064_32_04_0.67_05_0.10_0.90_22_problem.txt(59969) 26 Mb--- gams_0256_064_32_04_0.67_05_0.10_0.90_22_problem.txt(59969) 41 Mb--- gams_0256_064_32_04_0.67_05_0.10_0.90_22_problem.txt(59972) 82 Mb--- gams_0256_064_32_04_0.67_05_0.10_0.90_22_problem.txt(59976) 86 Mb--- gams_0256_064_32_04_0.67_05_0.10_0.90_22_problem.txt(59979) 200 Mb--- gams_0256_064_32_04_0.67_05_0.10_0.90_22_problem.txt(59981) 200 Mb--- gams_0256_064_32_04_0.67_05_0.10_0.90_22_problem.txt(59982) 219 Mb--- gams_0256_064_32_04_0.67_05_0.10_0.90_22_problem.txt(59982) 221 Mb--- gams_0256_064_32_04_0.67_05_0.10_0.90_22_problem.txt(59984) 224 Mb--- gams_0256_064_32_04_0.67_05_0.10_0.90_22_problem.txt(59984) 229 Mb--- gams_0256_064_32_04_0.67_05_0.10_0.90_22_problem.txt(59984) 243 Mb--- gams_0256_064_32_04_0.67_05_0.10_0.90_22_problem.txt(59986) 243 Mb--- gams_0256_064_32_04_0.67_05_0.10_0.90_22_problem.txt(59989) 243 Mb--- gams_0256_064_32_04_0.67_05_0.10_0.90_22_problem.txt(59989) 244 Mb--- gams_0256_064_32_04_0.67_05_0.10_0.90_22_problem.txt(59989) 248 Mb
---   576,769 rows  557,057 columns  2,778,241 non-zeroes
---   557,056 discrete-columns
--- Executing CPLEX (Solvelink=2): elapsed 0:00:04.281

IBM ILOG CPLEX   35.2.0 r33388c4 Released Jun 02, 2021 WEI x86 64bit/MS Window

--- GAMS/Cplex licensed for continuous and discrete problems.
--- Space for names approximately 26.45 Mb
--- Use option 'names no' to turn use of names off
--- GMO memory 257.18 Mb (peak 261.43 Mb)
--- Dictionary memory 0.00 Mb
--- Cplex 20.1.0.1 link memory 17.23 Mb (peak 89.30 Mb)
--- Starting Cplex

Version identifier: 20.1.0.1 | 2021-04-07 | 3a818710c
CPXPARAM_Advance                                 0
CPXPARAM_Threads                                 1
CPXPARAM_MIP_Display                             4
CPXPARAM_TimeLimit                               3600
CPXPARAM_MIP_Tolerances_AbsMIPGap                0
Generic callback                                 0x50
Tried aggregator 18 times.
MIP Presolve eliminated 541365 rows and 498810 columns.
Aggregator did 860 substitutions.
Reduced MIP has 34544 rows, 57388 columns, and 188682 nonzeros.
Reduced MIP has 57388 binaries, 0 generals, 0 SOSs, and 0 indicators.
Presolve time = 8.55 sec. (3193.33 ticks)
Probing fixed 2925 vars, tightened 0 bounds.
Probing changed sense of 201 constraints.
Probing time = 0.84 sec. (153.76 ticks)
Tried aggregator 16 times.
Detecting symmetries...
MIP Presolve eliminated 1453 rows and 3186 columns.
Aggregator did 1453 substitutions.
Reduced MIP has 31638 rows, 52749 columns, and 173934 nonzeros.
Reduced MIP has 52749 binaries, 0 generals, 0 SOSs, and 0 indicators.
Presolve time = 4.35 sec. (1582.63 ticks)
Probing time = 0.08 sec. (13.22 ticks)
Clique table members: 123749.
MIP emphasis: balance optimality and feasibility.
MIP search method: dynamic search.
Parallel mode: none, using 1 thread.
Tried aggregator 1 time.
No LP presolve or aggregator reductions.
Presolve time = 0.06 sec. (25.92 ticks)
Initializing dual steep norms . . .

Iteration log . . .
Iteration:     1   Dual objective     =         34738.000000
Perturbation started.
Iteration:   101   Dual objective     =         34738.000000
Iteration:   938   Dual objective     =         34730.999341
Iteration:  1740   Dual objective     =         34717.998820
Iteration:  2546   Dual objective     =         34702.998494
Iteration:  3322   Dual objective     =         34687.998218
Iteration:  4093   Dual objective     =         34679.997959
Iteration:  4869   Dual objective     =         34677.997706
Iteration:  5621   Dual objective     =         34677.997489
Iteration:  6412   Dual objective     =         34677.997241
Iteration:  7183   Dual objective     =         34677.997021
Iteration:  7972   Dual objective     =         34677.996776
Iteration:  8750   Dual objective     =         34677.996571
Iteration:  9493   Dual objective     =         34677.996403
Iteration: 10184   Dual objective     =         34668.996291
Iteration: 10877   Dual objective     =         34655.996209
Iteration: 11588   Dual objective     =         34649.996107
Iteration: 12329   Dual objective     =         34649.996008
Iteration: 13037   Dual objective     =         34646.995904
Iteration: 13719   Dual objective     =         34642.995831
Iteration: 14410   Dual objective     =         34642.995736
Iteration: 15048   Dual objective     =         34635.995705
Iteration: 15709   Dual objective     =         34631.995642
Iteration: 16344   Dual objective     =         34629.995584
Iteration: 17004   Dual objective     =         34627.995531
Iteration: 17647   Dual objective     =         34625.995484
Iteration: 18266   Dual objective     =         34623.995443
Iteration: 18889   Dual objective     =         34623.995398
Iteration: 19505   Dual objective     =         34620.995365
Iteration: 20111   Dual objective     =         34620.995321
Iteration: 20714   Dual objective     =         34619.495276
Iteration: 21320   Dual objective     =         34608.995251
Iteration: 21904   Dual objective     =         34606.495218
Iteration: 22487   Dual objective     =         34606.495175
Iteration: 23045   Dual objective     =         34606.495131
Iteration: 23618   Dual objective     =         34606.495083
Iteration: 24173   Dual objective     =         34606.495040
Iteration: 24492   Dual objective     =         34606.495006
Iteration: 24830   Dual objective     =         34606.494949
Iteration: 25170   Dual objective     =         34593.511671
Iteration: 25576   Dual objective     =         34587.869986
Iteration: 25949   Dual objective     =         34586.994751
Iteration: 26281   Dual objective     =         34586.994209
Iteration: 26481   Dual objective     =         34586.994185
Iteration: 26876   Dual objective     =         34577.911574
Iteration: 27310   Dual objective     =         34572.944964
Iteration: 27743   Dual objective     =         34570.394918
Iteration: 28019   Dual objective     =         34570.394898
Iteration: 28331   Dual objective     =         34569.894870
Iteration: 28609   Dual objective     =         34569.894851
Iteration: 28900   Dual objective     =         34567.894838
Iteration: 29208   Dual objective     =         34567.844815
Iteration: 29484   Dual objective     =         34567.844800
Iteration: 29796   Dual objective     =         34566.744779
Iteration: 30093   Dual objective     =         34566.144761
Iteration: 30336   Dual objective     =         34566.144746
Iteration: 30604   Dual objective     =         34566.144709
Iteration: 30898   Dual objective     =         34561.644737
Iteration: 31172   Dual objective     =         34561.644687
Iteration: 31390   Dual objective     =         34561.644665
Iteration: 31634   Dual objective     =         34561.644642
Iteration: 31870   Dual objective     =         34561.644610
Iteration: 32143   Dual objective     =         34561.644538
Iteration: 32407   Dual objective     =         34561.644469
Iteration: 32690   Dual objective     =         34559.879996
Iteration: 32973   Dual objective     =         34553.591900
Iteration: 33307   Dual objective     =         34551.036244
Iteration: 33586   Dual objective     =         34550.477912
Iteration: 33888   Dual objective     =         34549.225397
Iteration: 34178   Dual objective     =         34548.659348
Iteration: 34455   Dual objective     =         34548.175136
Iteration: 34765   Dual objective     =         34545.035772
Iteration: 35066   Dual objective     =         34543.522780
Iteration: 35343   Dual objective     =         34542.441142
Iteration: 35573   Dual objective     =         34542.360534
Iteration: 35816   Dual objective     =         34542.344627
Iteration: 36105   Dual objective     =         34542.096613
Iteration: 36344   Dual objective     =         34541.668009
Iteration: 36592   Dual objective     =         34541.084631
Iteration: 36887   Dual objective     =         34540.649223
Iteration: 37174   Dual objective     =         34540.649103
Iteration: 37442   Dual objective     =         34540.648967
Iteration: 37689   Dual objective     =         34540.648757
Iteration: 37939   Dual objective     =         34540.648370
Iteration: 38212   Dual objective     =         34540.647716
Iteration: 38479   Dual objective     =         34540.595617
Iteration: 38734   Dual objective     =         34540.587401
Iteration: 39045   Dual objective     =         34540.581281
Iteration: 39327   Dual objective     =         34540.574995
Iteration: 39626   Dual objective     =         34540.426120
Iteration: 39897   Dual objective     =         34537.862093
Iteration: 40164   Dual objective     =         34537.857033
Iteration: 40449   Dual objective     =         34533.396048
Iteration: 40836   Dual objective     =         34531.639152
Iteration: 41156   Dual objective     =         34529.381142
Iteration: 41440   Dual objective     =         34528.317060
Iteration: 41709   Dual objective     =         34525.288573
Iteration: 41994   Dual objective     =         34522.287206
Iteration: 42323   Dual objective     =         34519.135052
Iteration: 42626   Dual objective     =         34517.862283
Iteration: 42936   Dual objective     =         34515.114990
Iteration: 43240   Dual objective     =         34512.122066
Iteration: 43609   Dual objective     =         34510.185413
Iteration: 43910   Dual objective     =         34508.821780
Iteration: 44226   Dual objective     =         34507.801242
Iteration: 44546   Dual objective     =         34506.685548
Iteration: 44858   Dual objective     =         34506.046706
Iteration: 45147   Dual objective     =         34505.799980
Iteration: 45416   Dual objective     =         34504.211249
Iteration: 45734   Dual objective     =         34503.471224
Elapsed time = 56.47 sec. (10000.09 ticks, 45781 iterations)
Iteration: 46018   Dual objective     =         34502.048947
Iteration: 46314   Dual objective     =         34500.444349
Iteration: 46623   Dual objective     =         34499.731219
Iteration: 46902   Dual objective     =         34498.889145
Iteration: 47204   Dual objective     =         34498.071701
Iteration: 47511   Dual objective     =         34496.965258
Iteration: 47830   Dual objective     =         34496.406862
Iteration: 48118   Dual objective     =         34495.594766
Iteration: 48410   Dual objective     =         34493.958644
Iteration: 48717   Dual objective     =         34491.476691
Iteration: 49041   Dual objective     =         34490.486126
Iteration: 49349   Dual objective     =         34489.504424
Iteration: 49629   Dual objective     =         34488.356517
Iteration: 49941   Dual objective     =         34487.888130
Iteration: 50234   Dual objective     =         34487.388841
Iteration: 50522   Dual objective     =         34486.628488
Iteration: 50775   Dual objective     =         34486.334715
Iteration: 51035   Dual objective     =         34486.305875
Iteration: 51311   Dual objective     =         34485.749751
Iteration: 51576   Dual objective     =         34485.479418
Iteration: 51836   Dual objective     =         34485.051348
Iteration: 52078   Dual objective     =         34484.340955
Iteration: 52304   Dual objective     =         34483.679538
Iteration: 52569   Dual objective     =         34483.151374
Iteration: 52813   Dual objective     =         34482.079629
Iteration: 53108   Dual objective     =         34481.762012
Iteration: 53367   Dual objective     =         34481.051560
Iteration: 53630   Dual objective     =         34480.466708
Iteration: 53869   Dual objective     =         34480.089715
Iteration: 54103   Dual objective     =         34479.493646
Iteration: 54329   Dual objective     =         34478.995571
Iteration: 54546   Dual objective     =         34478.236585
Iteration: 54794   Dual objective     =         34477.427003
Iteration: 55036   Dual objective     =         34476.700612
Iteration: 55271   Dual objective     =         34475.939596
Iteration: 55493   Dual objective     =         34475.341585
Iteration: 55742   Dual objective     =         34474.794005
Iteration: 55989   Dual objective     =         34474.189339
Iteration: 56233   Dual objective     =         34473.577241
Iteration: 56471   Dual objective     =         34472.824808
Iteration: 56705   Dual objective     =         34471.914038
Iteration: 56943   Dual objective     =         34471.312104
Iteration: 57163   Dual objective     =         34470.720997
Iteration: 57388   Dual objective     =         34470.258410
Elapsed time = 102.93 sec. (20000.22 ticks, 57456 iterations)
Iteration: 57611   Dual objective     =         34469.691281
Iteration: 57838   Dual objective     =         34469.169855
Iteration: 58060   Dual objective     =         34468.717327
Iteration: 58279   Dual objective     =         34468.348512
Iteration: 58506   Dual objective     =         34467.858706
Iteration: 58730   Dual objective     =         34467.394248
Iteration: 58953   Dual objective     =         34467.028930
Iteration: 59191   Dual objective     =         34466.440620
Iteration: 59412   Dual objective     =         34466.104498
Iteration: 59640   Dual objective     =         34465.777324
Iteration: 59870   Dual objective     =         34465.449659
Iteration: 60106   Dual objective     =         34465.083881
Iteration: 60351   Dual objective     =         34464.701073
Iteration: 60564   Dual objective     =         34464.273203
Iteration: 60786   Dual objective     =         34463.941771
Iteration: 61003   Dual objective     =         34463.559992
Iteration: 61229   Dual objective     =         34463.140002
Iteration: 61447   Dual objective     =         34462.666696
Iteration: 61697   Dual objective     =         34462.334757
Iteration: 61918   Dual objective     =         34462.017458
Iteration: 62125   Dual objective     =         34461.705813
Iteration: 62359   Dual objective     =         34461.376563
Iteration: 62604   Dual objective     =         34461.081231
Iteration: 62847   Dual objective     =         34460.766008
Iteration: 63057   Dual objective     =         34460.453480
Iteration: 63276   Dual objective     =         34460.065057
Iteration: 63500   Dual objective     =         34459.800668
Iteration: 63710   Dual objective     =         34459.431704
Iteration: 63921   Dual objective     =         34459.141694
Iteration: 64115   Dual objective     =         34458.810639
Iteration: 64372   Dual objective     =         34458.615951
Iteration: 64604   Dual objective     =         34458.419211
Iteration: 64833   Dual objective     =         34458.251600
Iteration: 65063   Dual objective     =         34458.068613
Iteration: 65295   Dual objective     =         34457.963892
Elapsed time = 146.72 sec. (30000.72 ticks, 65463 iterations)
Iteration: 65516   Dual objective     =         34457.747658
Iteration: 65745   Dual objective     =         34457.597770
Iteration: 65963   Dual objective     =         34457.421686
Iteration: 66193   Dual objective     =         34457.207086
Iteration: 66418   Dual objective     =         34457.052078
Iteration: 66661   Dual objective     =         34456.776823
Iteration: 66875   Dual objective     =         34456.505444
Iteration: 67096   Dual objective     =         34456.253828
Iteration: 67315   Dual objective     =         34456.084971
Iteration: 67535   Dual objective     =         34455.939320
Iteration: 67751   Dual objective     =         34455.763893
Iteration: 67962   Dual objective     =         34455.566597
Iteration: 68181   Dual objective     =         34455.434713
Iteration: 68418   Dual objective     =         34455.330173
Iteration: 68629   Dual objective     =         34455.170976
Iteration: 68845   Dual objective     =         34455.031308
Iteration: 69053   Dual objective     =         34454.896059
Iteration: 69275   Dual objective     =         34454.766398
Iteration: 69497   Dual objective     =         34454.642371
Iteration: 69700   Dual objective     =         34454.507746
Iteration: 69900   Dual objective     =         34454.364020
Iteration: 70113   Dual objective     =         34454.274015
Iteration: 70315   Dual objective     =         34454.170888
Iteration: 70510   Dual objective     =         34454.050721
Iteration: 70742   Dual objective     =         34453.971964
Iteration: 70954   Dual objective     =         34453.833111
Iteration: 71159   Dual objective     =         34453.727956
Iteration: 71376   Dual objective     =         34453.578136
Iteration: 71587   Dual objective     =         34453.496721
Iteration: 71804   Dual objective     =         34453.365049
Iteration: 72001   Dual objective     =         34453.255748
Elapsed time = 192.74 sec. (40002.76 ticks, 72164 iterations)
Iteration: 72224   Dual objective     =         34453.159629
Iteration: 72425   Dual objective     =         34453.038071
Iteration: 72649   Dual objective     =         34452.979729
Iteration: 72865   Dual objective     =         34452.912626
Iteration: 73085   Dual objective     =         34452.798564
Iteration: 73306   Dual objective     =         34452.735529
Iteration: 73522   Dual objective     =         34452.687239
Iteration: 73729   Dual objective     =         34452.608857
Iteration: 73947   Dual objective     =         34452.565103
Iteration: 74161   Dual objective     =         34452.504841
Iteration: 74382   Dual objective     =         34452.459692
Iteration: 74585   Dual objective     =         34452.422138
Iteration: 74793   Dual objective     =         34452.372588
Iteration: 75007   Dual objective     =         34452.339941
Iteration: 75208   Dual objective     =         34452.307247
Iteration: 75396   Dual objective     =         34452.267842
Iteration: 75621   Dual objective     =         34452.236480
Iteration: 75834   Dual objective     =         34452.208421
Iteration: 76046   Dual objective     =         34452.173688
Iteration: 76270   Dual objective     =         34452.138681
Iteration: 76475   Dual objective     =         34452.122998
Iteration: 76697   Dual objective     =         34452.115777
Removing perturbation.
Iteration: 76832   Dual infeasibility =             0.000000
Iteration: 76833   Dual objective     =         34452.120222
Root relaxation solution time = 230.32 sec. (48153.11 ticks)

        Nodes                                         Cuts/
   Node  Left     Objective  IInf  Best Integer    Best Bound    ItCnt     Gap

      0     0    34452.1202  9621                  34452.1202    76856         
      0     0    34446.2532 10188                   Cuts: 395    84250         
      0     0    34441.6538 10821                   Cuts: 403    92796         
      0     0    34437.9011 11554               ZeroHalf: 374   100008         
      0     0    34434.1775 11984               ZeroHalf: 437   108686         
      0     0    34429.8873 11946               ZeroHalf: 425   117088         
      0     0    34426.4656 12353               ZeroHalf: 441   124999         
      0     0    34422.1253 12675               ZeroHalf: 443   135190         
      0     0    34419.1531 12832               ZeroHalf: 441   142922         
      0     0    34415.8581 12794               ZeroHalf: 378   150743         
      0     0    34413.2446 13312               ZeroHalf: 413   158076         
      0     0    34411.0993 13239               ZeroHalf: 404   165700         
      0     0    34408.7302 12895               ZeroHalf: 360   173189         
      0     0    34407.0593 13373               ZeroHalf: 328   179439         
Heuristic still looking.
      0     2    34407.0593 13373                  34407.0593   179439         
Elapsed time = 1624.81 sec. (403273.49 ticks, tree = 0.01 MB, solutions = 0)
      1     3    34406.8868 13198                  34407.0591   182880         
      2     4    34406.4134 12987                  34407.0591   186843         
      3     5    34406.2677 13259                  34407.0591   188599         
      4     6    34405.6928 12913                  34407.0591   189913         
      5     7    34405.1154 13105                  34407.0591   196224         
      6     8    34405.2781 12990                  34407.0591   206516         
      7     9    34405.2754 12985                  34407.0591   210259         
      8    10    34405.2505 12954                  34407.0591   211977         
      9    11    34405.2382 12943                  34407.0591   212920         
     10    12    34405.1789 13011                  34407.0591   214334         
Elapsed time = 1926.96 sec. (478762.17 ticks, tree = 0.16 MB, solutions = 0)
     11    13    34405.1872 12792                  34407.0591   217934         
     12    14    34405.1522 12757                  34407.0591   218415         
     13    15    34405.0925 12740                  34407.0591   220194         
     14    16    34405.0493 12777                  34407.0591   221323         
     15    17    34405.0622 12808                  34407.0591   222571         
     16    18    34404.9696 12774                  34407.0591   224105         
     17    19    34404.9085 12776                  34407.0591   225108         
     18    20    34404.9343 12818                  34407.0591   226661         
     19    21    34404.8512 12702                  34407.0591   227929         
     20    22    34404.5042 12730                  34407.0591   230250         
Elapsed time = 2231.11 sec. (546346.85 ticks, tree = 0.33 MB, solutions = 0)
     21    23    34404.7910 12740                  34407.0591   230639         
     22    24    34404.4380 12692                  34407.0591   233036         
     23    25    34404.4182 12726                  34407.0591   234046         
     24    26    34404.1116 12505                  34407.0591   236778         
     25    27    34403.9658 12593                  34407.0591   239476         
     26    28    34404.0551 12448                  34407.0591   241165         
     27    29    34403.9540 12456                  34407.0591   242158         
     28    30    34403.8846 12642                  34407.0591   242940         
     29    31    34403.9086 12528                  34407.0591   244487         
     30    32    34403.8774 12459                  34407.0591   246084         
Elapsed time = 2383.98 sec. (587243.70 ticks, tree = 1.52 MB, solutions = 0)
     31    33    34403.8460 12372                  34407.0591   247335         
     33    35    34402.4164 12364                  34407.0591   249477         
     34    36    34403.7779 12410                  34407.0591   250577         
     35    37    34401.6723 12332                  34407.0591   254612         
     36    38    34401.5596 12354                  34407.0591   257371         
     37    39    34400.9656 12579                  34407.0591   260511         
     40    42    34401.5267 12405                  34407.0591   261200         
     41    43    34401.4682 12410                  34407.0591   262052         
     42    44    34401.3888 12416                  34407.0591   263149         
     43    45    34401.1464 12351                  34407.0591   263791         
Elapsed time = 2545.41 sec. (628504.77 ticks, tree = 2.49 MB, solutions = 0)
     44    46    34401.1105 12310                  34407.0591   264310         
     45    47    34401.0634 12392                  34407.0591   264823         
     46    48    34401.0716 12155                  34407.0591   265957         
     47    49    34400.6933 12255                  34407.0591   269364         
     48    50    34401.0580 12238                  34407.0591   270177         
     49    51    34401.0454 12123                  34407.0591   270693         
     50    52    34401.0454 12125                  34407.0591   270696         
     52    54    34401.0322 12148                  34407.0591   271409         
     53    55    34398.6455 12059                  34407.0591   274293         
     54    56    34398.5626 12217                  34407.0591   275745         
Elapsed time = 2752.03 sec. (677206.76 ticks, tree = 2.66 MB, solutions = 0)
     57    59    34398.6094 12103                  34407.0591   277237         
     58    60    34398.5844 12109                  34407.0591   278799         
     59    61    34396.5332 12159                  34407.0591   282175         
     60    62    34398.3972 12070                  34407.0591   283948         
     61    63    34398.3440 12065                  34407.0591   284828         
     62    64    34398.3137 12112                  34407.0591   285440         
     63    65    34397.9197 12033                  34407.0591   286124         
     64    66    34397.8844 12144                  34407.0591   286719         
     65    67    34397.7547 12158                  34407.0591   288969         
     66    68    34397.7263 12219                  34407.0591   290319         
Elapsed time = 3033.80 sec. (743171.55 ticks, tree = 4.36 MB, solutions = 0)
     67    69    34397.7787 12058                  34407.0591   291212         
     68    70    34397.6220 12082                  34407.0591   292288         
     69    71    34397.1403 12224                  34407.0591   294165         
     70    72    34397.5787 11935                  34407.0591   295695         
     71    73    34397.4655 12104                  34407.0591   297454         
     72    74    34397.5787 11933                  34407.0591   297455         
     73    75    34397.4698 12054                  34407.0591   298251         
     75    77    34396.4076 11925                  34407.0591   300067         
     76    78    34396.3741 11995                  34407.0591   301372         
     77    79    34396.2014 11954                  34407.0591   301931         
Elapsed time = 3244.87 sec. (796128.77 ticks, tree = 5.82 MB, solutions = 0)
     78    80    34396.0988 11906                  34407.0591   303171         
     79    81    34396.0142 11882                  34407.0591   304653         
     80    82    34395.7815 11941                  34407.0591   309043         
     81    83    34395.9580 11934                  34407.0591   310215         
     82    84    34395.7064 11955                  34407.0591   313440         
     84    86    34395.8722 11960                  34407.0591   314977         
     86    88    34395.9446 11864                  34407.0591   315564         
     87    89    34395.8314 11953                  34407.0591   317538         
     88    90    34395.7058 11975                  34407.0591   321220         
     89    91    34395.6012 11873                  34407.0591   324158         
Elapsed time = 3430.28 sec. (842350.15 ticks, tree = 6.03 MB, solutions = 0)
     90    92    34395.5072 11976                  34407.0591   325310         
     91    93    34395.4912 11841                  34407.0591   327820         
     92    94    34395.2813 11755                  34407.0591   333510         
     93    95    34395.0362 11629                  34407.0591   337337         
     94    96    34395.0292 11648                  34407.0591   338088         
     95    97    34392.7120 11601                  34407.0591   343772         

Zero-half cuts applied:  847
Gomory fractional cuts applied:  13

Root node processing (before b&c):
  Real time             = 1624.50 sec. (403180.64 ticks)
Sequential b&c:
  Real time             = 1975.57 sec. (480824.14 ticks)
                          ------------
Total (root+branch&cut) = 3600.07 sec. (884004.78 ticks)

--- MIP status (108): time limit exceeded, no integer solution.
--- Cplex Time: 3600.07sec (det. 884006.37 ticks)

CPLEX Error  1217: No solution exists.
--- Resource limit exceeded, no integer solution found
--- Reading solution for model mymodel
--- Executing after solve: elapsed 1:00:08.767
--- gams_0256_064_32_04_0.67_05_0.10_0.90_22_problem.txt(59990) 248 Mb--- gams_0256_064_32_04_0.67_05_0.10_0.90_22_problem.txt(60007) 248 Mb--- gams_0256_064_32_04_0.67_05_0.10_0.90_22_problem.txt(60010) 248 Mb
--- Putfile results C:\Users\MariaSosnovskaya\Downloads\WfmGams3\problems\gams_0256_064_32_04_0.67_05_0.10_0.90_22_results.txt
*** Status: Normal completion
--- Job gams_0256_064_32_04_0.67_05_0.10_0.90_22_problem.txt Stop 02/25/21 10:14:59 elapsed 1:00:10.414
